% From JaCoP's nonogramRepository/data012.nin
 rows = 20;
 row_rule_len = 8;
 row_rules = array2d(1..rows, 1..row_rule_len, 
[
 0,0,0,0,0,0,0,4,
 0,0,0,0,0,0,3,5,
 0,0,0,0,0,0,5,6,
 0,0,0,0,0,2,2,7,
 0,0,0,0,0,4,1,8,
 0,0,0,0,0,3,2,9,
 0,0,0,0,0,2,1,9,
 0,0,0,1,1,1,1,9,
 0,0,0,0,1,1,1,13,
 0,0,0,0,2,4,2,4,
 0,0,0,0,3,3,7,1,
 0,0,0,0,0,0,15,1,
 0,0,0,0,0,0,3,15,
 0,0,0,0,0,3,2,7,
 0,0,0,3,2,2,5,6,
 0,3,1,1,1,3,2,2,
 3,1,1,1,2,1,2,1,
 0,0,2,2,2,2,2,2,
 0,0,0,0,2,2,2,8,
 0,0,0,0,0,0,4,6
]);

 cols = 25;
 col_rule_len = 6;
 col_rules = array2d(1..cols, 1..col_rule_len, 
[
 0,0,0,0,0,2,
 0,0,0,0,0,4,
 0,0,0,0,8,1,
 0,0,0,0,0,10,
 0,0,0,0,2,5,
 0,0,0,1,3,1,
 0,0,0,2,4,4,
 0,0,0,1,8,2,
 0,0,1,5,2,2,
 3,1,2,1,1,1,
 3,4,3,1,1,1,
 0,2,1,6,2,2,
 0,0,2,1,7,2,
 0,0,0,2,1,8,
 0,0,0,1,2,7,
 0,0,0,0,3,6,
 0,0,0,0,4,5,
 0,0,0,6,2,4,
 0,0,7,1,2,3,
 0,0,8,1,1,2,
 0,9,1,1,1,2,
 0,9,2,1,1,2,
 0,0,0,8,1,2,
 0,0,0,7,2,3,
 0,0,0,0,6,4
]);

